10 45
1 2 10
1 3 24
1 4 25
1 5 3
1 6 24
1 7 8
1 8 0
1 9 21
1 10 29
2 3 19
2 4 10
2 5 11
2 6 25
2 7 9
2 8 10
2 9 21
2 10 23
3 4 6
3 5 0
3 6 20
3 7 12
3 8 29
3 9 7
3 10 14
4 5 24
4 6 26
4 7 17
4 8 26
4 9 22
4 10 2
5 6 2
5 7 28
5 8 1
5 9 19
5 10 26
6 7 5
6 8 8
6 9 14
6 10 1
7 8 29
7 9 10
7 10 24
8 9 27
8 10 7
9 10 24
